# Objective value = 3.5033300000000008e+03
I_0_0 674
I_0_1 6.8699999999999977e+02
I_0_2 727
I_0_3 1031
I_1_0 87
I_1_1 87
I_1_2 87
I_1_3 0
I_2_0 86
I_2_1 86
I_2_2 86
I_2_3 0
I_3_0 65
I_3_1 65.0000000000003
I_3_2 65
I_3_3 0
I_4_0 106
I_4_1 106
I_4_2 53
I_4_3 0
I_5_0 26
I_5_1 13
I_5_2 26
I_5_3 13
q_1_0_0 87
q_1_0_1 8.7000000000000014e+01
q_1_0_2 0
q_1_1_0 0
q_1_1_1 -1.6752224607508026e-14
q_1_1_2 0
q_1_2_0 0
q_1_2_1 0
q_1_2_2 0
q_2_0_0 0
q_2_0_1 -1.9095836023552692e-14
q_2_0_2 0
q_2_1_0 86
q_2_1_1 8.6000000000000014e+01
q_2_1_2 0
q_2_2_0 0
q_2_2_1 0
q_2_2_2 0
q_3_0_0 0
q_3_0_1 0
q_3_0_2 0
q_3_1_0 65.0000000000003
q_3_1_1 6.4999999999999687e+01
q_3_1_2 0
q_3_2_0 0
q_3_2_1 0
q_3_2_2 0
q_4_0_0 53
q_4_0_1 0
q_4_0_2 0
q_4_1_0 0
q_4_1_1 0
q_4_1_2 0
q_4_2_0 0
q_4_2_1 0
q_4_2_2 0
q_5_0_0 0
q_5_0_1 26
q_5_0_2 0
q_5_1_0 0
q_5_1_1 0
q_5_1_2 0
q_5_2_0 0
q_5_2_1 0
q_5_2_2 0
y_0_0_0 1
y_0_0_1 1
y_0_0_2 0
y_0_1_0 1
y_0_1_1 1
y_0_1_2 0
y_0_2_0 0
y_0_2_1 0
y_0_2_2 0
y_1_0_0 1
y_1_0_1 1.0000000000000002e+00
y_1_0_2 0
y_1_1_0 0
y_1_1_1 -1.9255430583342559e-16
y_1_1_2 0
y_1_2_0 0
y_1_2_1 0
y_1_2_2 0
y_2_0_0 0
y_2_0_1 -2.2204460492503131e-16
y_2_0_2 0
y_2_1_0 1
y_2_1_1 1.0000000000000002e+00
y_2_1_2 0
y_2_2_0 0
y_2_2_1 0
y_2_2_2 0
y_3_0_0 0
y_3_0_1 0
y_3_0_2 0
y_3_1_0 1.0000000000000047e+00
y_3_1_1 1
y_3_1_2 0
y_3_2_0 0
y_3_2_1 0
y_3_2_2 0
y_4_0_0 1
y_4_0_1 0
y_4_0_2 0
y_4_1_0 0
y_4_1_1 0
y_4_1_2 0
y_4_2_0 0
y_4_2_1 0
y_4_2_2 0
y_5_0_0 0
y_5_0_1 1
y_5_0_2 0
y_5_1_0 0
y_5_1_1 0
y_5_1_2 0
y_5_2_0 0
y_5_2_1 0
y_5_2_2 0
x_0_1_0_0 1
x_0_1_0_1 1.0000000000000004e+00
x_0_1_0_2 0
x_0_1_1_0 0
x_0_1_1_1 0
x_0_1_1_2 0
x_0_1_2_0 0
x_0_1_2_1 0
x_0_1_2_2 0
x_0_2_0_0 0
x_0_2_0_1 -1.4571677198205180e-16
x_0_2_0_2 0
x_0_2_1_0 9.9999999999999523e-01
x_0_2_1_1 1
x_0_2_1_2 0
x_0_2_2_0 0
x_0_2_2_1 0
x_0_2_2_2 0
x_0_3_0_0 0
x_0_3_0_1 0
x_0_3_0_2 0
x_0_3_1_0 1.0000000000000047e+00
x_0_3_1_1 9.9999999999999978e-01
x_0_3_1_2 0
x_0_3_2_0 0
x_0_3_2_1 0
x_0_3_2_2 0
x_0_4_0_0 1
x_0_4_0_1 0
x_0_4_0_2 0
x_0_4_1_0 0
x_0_4_1_1 0
x_0_4_1_2 0
x_0_4_2_0 0
x_0_4_2_1 0
x_0_4_2_2 0
x_0_5_0_0 0
x_0_5_0_1 1
x_0_5_0_2 0
x_0_5_1_0 0
x_0_5_1_1 0
x_0_5_1_2 0
x_0_5_2_0 0
x_0_5_2_1 0
x_0_5_2_2 0
x_1_2_0_0 0
x_1_2_0_1 0
x_1_2_0_2 0
x_1_2_1_0 0
x_1_2_1_1 0
x_1_2_1_2 0
x_1_2_2_0 0
x_1_2_2_1 0
x_1_2_2_2 0
x_1_3_0_0 0
x_1_3_0_1 0
x_1_3_0_2 0
x_1_3_1_0 0
x_1_3_1_1 0
x_1_3_1_2 0
x_1_3_2_0 0
x_1_3_2_1 0
x_1_3_2_2 0
x_1_4_0_0 1
x_1_4_0_1 0
x_1_4_0_2 0
x_1_4_1_0 0
x_1_4_1_1 0
x_1_4_1_2 0
x_1_4_2_0 0
x_1_4_2_1 0
x_1_4_2_2 0
x_1_5_0_0 0
x_1_5_0_1 1.0000000000000002e+00
x_1_5_0_2 0
x_1_5_1_0 0
x_1_5_1_1 0
x_1_5_1_2 0
x_1_5_2_0 0
x_1_5_2_1 0
x_1_5_2_2 0
x_2_3_0_0 0
x_2_3_0_1 0
x_2_3_0_2 0
x_2_3_1_0 1.0000000000000049e+00
x_2_3_1_1 1.0000000000000002e+00
x_2_3_1_2 0
x_2_3_2_0 0
x_2_3_2_1 0
x_2_3_2_2 0
x_2_4_0_0 0
x_2_4_0_1 0
x_2_4_0_2 0
x_2_4_1_0 0
x_2_4_1_1 0
x_2_4_1_2 0
x_2_4_2_0 0
x_2_4_2_1 0
x_2_4_2_2 0
x_2_5_0_0 0
x_2_5_0_1 0
x_2_5_0_2 0
x_2_5_1_0 0
x_2_5_1_1 0
x_2_5_1_2 0
x_2_5_2_0 0
x_2_5_2_1 0
x_2_5_2_2 0
x_3_4_0_0 0
x_3_4_0_1 0
x_3_4_0_2 0
x_3_4_1_0 0
x_3_4_1_1 0
x_3_4_1_2 0
x_3_4_2_0 0
x_3_4_2_1 0
x_3_4_2_2 0
x_3_5_0_0 0
x_3_5_0_1 0
x_3_5_0_2 0
x_3_5_1_0 0
x_3_5_1_1 0
x_3_5_1_2 0
x_3_5_2_0 0
x_3_5_2_1 0
x_3_5_2_2 0
x_4_5_0_0 0
x_4_5_0_1 0
x_4_5_0_2 0
x_4_5_1_0 0
x_4_5_1_1 0
x_4_5_1_2 0
x_4_5_2_0 0
x_4_5_2_1 0
x_4_5_2_2 0
